Optimal - objective value 5.89722875
      0 C0000000           50000                      -0
      1 C0000001           50000                      -0
      2 C0000002               1                      -0
      3 C0000003               2                      -0
      4 C0000004               3                      -0
      5 C0000005               1                      -0
      6 C0000006               1                      -0
      7 C0000007               1                      -0
      8 C0000008               0                      -0
      9 C0000009               0                      -0
     10 C0000010               1                      -0
     11 C0000011               0                      -0
     12 C0000012               0                      -0
     13 C0000013               0                      -0
     14 C0000014               1                      -0
     15 C0000015               0                      -0
     16 C0000016               0                      -0
     17 C0000017               1                      -0
     18 C0000018               1                      -0
     19 C0000019               1                      -0
     20 C0000020               0                      -0
     21 C0000021               0                      -0
     22 C0000022               0                      -0
     23 C0000023               1                      -0
     24 C0000024               0                      -0
     25 C0000025               0                      -0
     26 C0000026               2                      -0
     27 C0000027               0                      -0
     28 C0000028               0                      -0
     29 C0000029               1                      -0
     30 C0000030               0                      -0
     31 C0000031               0                      -0
     32 C0000032               0                      -0
     33 C0000033               0                      -0
     34 C0000034               0                      -0
     35 C0000035               0                      -0
     36 C0000036               0                      -0
     37 C0000037               0                      -0
     38 C0000038               0                      -0
     39 C0000039               0                      -0
     40 C0000040               0                      -0
     41 C0000041               1                      -0
     42 C0000042               1                      -0
     43 C0000043               0                      -0
     44 C0000044               0                      -0
     45 C0000045               0                      -0
     46 C0000046               0                      -0
     47 C0000047               0                      -0
     48 C0000048               0                      -0
     49 C0000049               0                      -0
     50 C0000050               0                      -0
     51 C0000051               0                      -0
     52 C0000052               0                      -0
     53 C0000053               0                      -0
     54 C0000054               0                      -0
     55 C0000055               0                      -0
     56 C0000056               0                      -0
     57 C0000057               0                      -0
     58 C0000058               0                      -0
     59 C0000059               0                      -0
     60 C0000060               0                      -0
     61 C0000061               0                      -0
     62 C0000062               0                      -0
     63 C0000063               0                      -0
     64 C0000064               0                      -0
     65 C0000065               0                      -0
     66 C0000066               0                      -0
     67 C0000067               0                      -0
     68 C0000068               0                      -0
     69 C0000069               0                      -0
     70 C0000070               1                      -0
     71 C0000071               0                      -0
     72 C0000072               0                      -0
     73 C0000073               0                      -0
     74 C0000074               1                      -0
     75 C0000075               0                      -0
     76 C0000076               0                      -0
     77 C0000077               0                      -0
     78 C0000078               0                      -0
     79 C0000079               0                      -0
     80 C0000080               0                      -0
     81 C0000081               0                      -0
     82 C0000082               0                      -0
     83 C0000083               0                      -0
     84 C0000084               0                      -0
     85 C0000085               0                      -0
     86 C0000086               1                      -0
     87 C0000087               0                      -0
     88 C0000088               0                      -0
     89 C0000089               0                      -0
     90 C0000090               0                      -0
     91 C0000091               0                      -0
     92 C0000092               0                      -0
     93 C0000093               0                      -0
     94 C0000094               1                      -0
     95 C0000095               0                      -0
     96 C0000096               0                      -0
     97 C0000097               0                      -0
     98 C0000098               0                      -0
     99 C0000099               0                      -0
    100 C0000100               0                      -0
    101 C0000101               0                      -0
    102 C0000102               0                      -0
    103 C0000103               0                      -0
    104 C0000104               0                      -0
    105 C0000105               0                      -0
    106 C0000106               0                      -0
    107 C0000107               0                      -0
    108 C0000108               0                      -0
    109 C0000109               0                      -0
    110 C0000110               0                      -0
    111 C0000111               0                      -0
    112 C0000112               0                      -0
    113 C0000113               0                      -0
    114 C0000114               0                      -0
    115 C0000115               0                      -0
    116 C0000116               0                      -0
    117 C0000117               0                      -0
    118 C0000118               0                      -0
    119 C0000119               0                      -0
    120 C0000120               0                      -0
    121 C0000121               0                      -0
    122 C0000122               0                      -0
    123 C0000123               0                      -0
    124 C0000124               0                      -0
    125 C0000125               0                      -0
    126 C0000126               0                      -0
    127 C0000127               0                      -0
    128 C0000128               0                      -0
    129 C0000129               0                      -0
    130 C0000130               0                      -0
    131 C0000131               0                      -0
    132 C0000132               0                      -0
    133 C0000133               0                      -0
    134 C0000134               0                      -0
    135 C0000135               0                      -0
    136 C0000136               0                      -0
    137 C0000137               0                      -0
    138 C0000138               0                      -0
    139 C0000139               0                      -0
    140 C0000140               0                      -0
    141 C0000141               1                      -0
    142 C0000142               1                      -0
    143 C0000143               0                      -0
    144 C0000144               0                      -0
    145 C0000145               0                      -0
    146 C0000146               0                      -0
    147 C0000147               0                      -0
    148 C0000148               0                      -0
    149 C0000149               0                      -0
    150 C0000150               0                      -0
    151 C0000151               0                      -0
    152 C0000152               0                      -0
    153 C0000153               0                      -0
    154 C0000154               0                      -0
    155 C0000155               0                      -0
    156 C0000156               0                      -0
    157 C0000157               0                      -0
    158 C0000158               0                      -0
    159 C0000159               1                      -0
    160 C0000160               0                      -0
    161 C0000161               0                      -0
    162 C0000162               0                      -0
    163 C0000163               0                      -0
    164 C0000164               0                      -0
    165 C0000165               0                      -0
    166 C0000166               0                      -0
    167 C0000167               0                      -0
    168 C0000168               0                      -0
    169 C0000169               0                      -0
    170 C0000170               0                      -0
    171 C0000171               0                      -0
    172 C0000172               0                      -0
    173 C0000173               0                      -0
    174 C0000174               0                      -0
    175 C0000175               0                      -0
    176 C0000176               0                      -0
    177 C0000177               0                      -0
    178 C0000178               0                      -0
    179 C0000179               0                      -0
    180 C0000180               0                      -0
    181 C0000181               0                      -0
    182 C0000182               0                      -0
    183 C0000183               0                      -0
    184 C0000184               0                      -0
    185 C0000185               0                      -0
    186 C0000186               0                      -0
    187 C0000187               0                      -0
    188 C0000188               0                      -0
    189 C0000189               0                      -0
    190 C0000190               0                      -0
    191 C0000191               0                      -0
    192 C0000192               0                      -0
    193 C0000193               0                      -0
    194 C0000194               0                      -0
    195 C0000195           96.18                      -0
    196 C0000196          138.33                      -0
    197 C0000197               7                      -0
    198 C0000198               6                      -0
    199 C0000199               5                      -0
    200 C0000200               4                      -0
    201 C0000201               6                      -0
    202 C0000202               5                      -0
    203 C0000203               5                      -0
    204 C0000204               5                      -0
    205 C0000205               5                      -0
    206 C0000206               6                      -0
    207 C0000207               4                      -0
    208 C0000208               6                      -0
    209 C0000209               5                      -0
    210 C0000210               6                      -0
    211 C0000211               6                      -0
    212 C0000212               5                      -0
    213 C0000213               6                      -0
    214 C0000214               5                      -0
    215 C0000215               5                      -0
    216 C0000216               7                      -0
    217 C0000217               6                      -0
    218 C0000218               5                      -0
    219 C0000219               4                      -0
    220 C0000220               5                      -0
    221 C0000221               5                      -0
    222 C0000222               5                      -0
    223 C0000223               5                      -0
    224 C0000224               5                      -0
    225 C0000225               5                      -0
    226 C0000226               5                      -0
    227 C0000227               5                      -0
    228 C0000228               5                      -0
    229 C0000229               5                      -0
    230 C0000230               4                      -0
    231 C0000231               6                      -0
    232 C0000232               4                      -0
    233 C0000233               5                      -0
    234 C0000234               4                      -0
    235 C0000235               5                      -0
    236 C0000236               4                      -0
    237 C0000237               4                      -0
    238 C0000238               5                      -0
    239 C0000239               6                      -0
    240 C0000240               5                      -0
    241 C0000241               5                      -0
    242 C0000242               5                      -0
    243 C0000243               5                      -0
    244 C0000244               4                      -0
    245 C0000245               6                      -0
    246 C0000246               5                      -0
    247 C0000247               6                      -0
    248 C0000248               6                      -0
    249 C0000249               4                      -0
    250 C0000250               4                      -0
    251 C0000251               4                      -0
    252 C0000252               4                      -0
    253 C0000253               6                      -0
    254 C0000254               5                      -0
    255 C0000255               5                      -0
    256 C0000256               4                      -0
    257 C0000257               6                      -0
    258 C0000258               5                      -0
    259 C0000259               6                      -0
    260 C0000260               4                      -0
    261 C0000261               4                      -0
    262 C0000262               6                      -0
    263 C0000263               5                      -0
    264 C0000264               5                      -0
    265 C0000265               7                      -0
    266 C0000266               5                      -0
    267 C0000267               5                      -0
    268 C0000268               5                      -0
    269 C0000269               5                      -0
    270 C0000270               5                      -0
    271 C0000271               4                      -0
    272 C0000272               5                      -0
    273 C0000273               4                      -0
    274 C0000274               4                      -0
    275 C0000275               5                      -0
    276 C0000276               6                      -0
    277 C0000277               6                      -0
    278 C0000278               6                      -0
    279 C0000279               6                      -0
    280 C0000280               6                      -0
    281 C0000281               4                      -0
    282 C0000282               5                      -0
    283 C0000283               5                      -0
    284 C0000284               4                      -0
    285 C0000285               5                      -0
    286 C0000286               5                      -0
    287 C0000287               4                      -0
    288 C0000288               8                      -0
    289 C0000289               4                      -0
    290 C0000290               4                      -0
    291 C0000291               5                      -0
    292 C0000292               4                      -0
    293 C0000293               5                      -0
    294 C0000294               5                      -0
    295 C0000295               5                      -0
    296 C0000296               5                      -0
    297 C0000297               4                      -0
    298 C0000298               5                      -0
    299 C0000299               5                      -0
    300 C0000300               5                      -0
      0 X0000000               0             -0.21377756
      1 X0000001               0              0.63999103
      2 X0000002               0              0.63999103
      3 X0000003               0              0.49762619
      4 X0000004               0              0.49762619
      5 X0000005               1              0.98584642
      6 X0000006               0              0.53269387
      7 X0000007               0              0.53269387
      8 X0000008               0              0.27033188
      9 X0000009               0              0.27033188
     10 X0000010               0              0.98292134
     11 X0000011               0              0.43479768
     12 X0000012               0              0.43479768
     13 X0000013               0               0.4777121
     14 X0000014               0               0.4777121
     15 X0000015               0              0.43092932
     16 X0000016               0              0.43092932
     17 X0000017               0              0.34128375
     18 X0000018               0              0.34128375
     19 X0000019               0              0.63308868
     20 X0000020               0              0.63308868
     21 X0000021               0              0.33035514
     22 X0000022               0              0.33035514
     23 X0000023               0              0.64631561
     24 X0000024               0              0.18119792
     25 X0000025               0              0.18119792
     26 X0000026               0            -0.074882679
     27 X0000027               0            -0.074882679
     28 X0000028               0              0.11529294
     29 X0000029               0              0.03275114
     30 X0000030               0              0.03275114
     31 X0000031               0              0.26166615
     32 X0000032               0              0.70604542
     33 X0000033               0              0.70604542
     34 X0000034               1              0.26948958
     35 X0000035               0               0.1729093
     36 X0000036               0               0.1729093
     37 X0000037               0               0.4983865
     38 X0000038               0               0.4983865
     39 X0000039               0              0.44137691
     40 X0000040               0              0.44137691
     41 X0000041               0              0.53544917
     42 X0000042               0              0.53544917
     43 X0000043               0              0.59944597
     44 X0000044               0              0.59944597
     45 X0000045               0              0.62189943
     46 X0000046               0              0.62189943
     47 X0000047               0              0.85831328
     48 X0000048               0             -0.16700001
     49 X0000049               0              0.83623494
     50 X0000050               0              0.64781214
     51 X0000051               0              0.49208379
     52 X0000052               0              0.49208379
     53 X0000053               0              0.16823138
     54 X0000054               0              0.16823138
     55 X0000055               0              0.17940632
     56 X0000056               0              0.72625033
     57 X0000057               0              0.72625033
     58 X0000058               0             0.079827748
     59 X0000059               0             0.079827748
     60 X0000060               0              0.65354833
     61 X0000061               0              0.65354833
     62 X0000062               0               0.2923688
     63 X0000063               0               0.2923688
     64 X0000064               0              0.23001864
     65 X0000065               0             -0.12184205
     66 X0000066               0              0.51312924
     67 X0000067               0              0.51312924
     68 X0000068               0              0.10375258
     69 X0000069               0              0.10375258
     70 X0000070               0              0.40532943
     71 X0000071               0              0.40532943
     72 X0000072               0              0.48836058
     73 X0000073               0              0.48836058
     74 X0000074               1              0.64492756
     75 X0000075               0              0.64492756
     76 X0000076               0               0.4386887
     77 X0000077               0               0.4386887
     78 X0000078               0             0.082435927
     79 X0000079               0             0.082435927
     80 X0000080               0              0.24483718
     81 X0000081               0              0.24483718
     82 X0000082               0              0.38020502
     83 X0000083               0              0.38020502
     84 X0000084               0              0.66032656
     85 X0000085               0              0.66032656
     86 X0000086               0              0.34695914
     87 X0000087               0              0.34695914
     88 X0000088               0              0.68684083
     89 X0000089               1              0.68684083
     90 X0000090               0              0.51032164
     91 X0000091               0              0.51032164
     92 X0000092               0              0.52169447
     93 X0000093               0              0.52169447
     94 X0000094               0              0.34967882
     95 X0000095               0              0.34967882
     96 X0000096               0              0.29274289
     97 X0000097               0              0.29274289
     98 X0000098               0              0.22324431
     99 X0000099               0              0.22324431
    100 X0000100               0              0.21316058
    101 X0000101               0              0.21316058
    102 X0000102               0              0.16636529
    103 X0000103               0               0.8819592
    104 X0000104               0              0.50032529
    105 X0000105               0              0.50032529
    106 X0000106               0              0.75401222
    107 X0000107               0              0.82157798
    108 X0000108               0              0.26304407
    109 X0000109               0              0.26304407
    110 X0000110               0              0.21056027
    111 X0000111               0              0.53822564
    112 X0000112               0              0.53822564
    113 X0000113               0              0.25481787
    114 X0000114               0              0.52329095
    115 X0000115               0              0.52329095
    116 X0000116               0              0.92575214
    117 X0000117               0              0.69293453
    118 X0000118               1              0.69293453
    119 X0000119               0             -0.13795338
    120 X0000120               0              0.28832764
    121 X0000121               0              0.28832764
    122 X0000122               0               0.5098951
    123 X0000123               0               0.5098951
    124 X0000124               0              0.23403187
    125 X0000125               0              0.23403187
    126 X0000126               0              0.70794887
    127 X0000127               0              0.70794887
    128 X0000128               0             0.037051111
    129 X0000129               0             0.037051111
    130 X0000130               0              0.16550498
    131 X0000131               0              0.82932471
    132 X0000132               1              0.82932471
    133 X0000133               0              0.58692121
    134 X0000134               0              0.58692121
    135 X0000135               0              0.57788906
    136 X0000136               1              0.57788906
    137 X0000137               0              0.69114153
    138 X0000138               0              0.67873762
    139 X0000139               0              0.67873762
    140 X0000140               0              0.51519838
    141 X0000141               0              0.51519838
    142 X0000142               0              0.55530786
    143 X0000143               0              0.55530786
    144 X0000144               0                       1
    145 X0000145               0              0.61685846
    146 X0000146               0              0.61685846
    147 X0000147               0               0.5451778
    148 X0000148               0               0.5451778
    149 X0000149               0              0.84847428
    150 X0000150               0              0.30161514
    151 X0000151               0              0.30161514
    152 X0000152               0               0.4483355
    153 X0000153               0               0.4483355
    154 X0000154               0              0.51712348
    155 X0000155               0              0.51712348
    156 X0000156               0              -0.1119318
    157 X0000157               0              0.87780428
    158 X0000158               0              0.56323237
    159 X0000159               0              0.56323237
    160 X0000160               0              0.57266038
    161 X0000161               0              0.57266038
    162 X0000162               0               0.5907628
    163 X0000163               0               0.5907628
    164 X0000164               0              0.20270088
    165 X0000165               0              0.20270088
    166 X0000166               0              0.82500442
    167 X0000167               0              0.49646082
    168 X0000168               0              0.49646082
    169 X0000169               0              0.63945037
    170 X0000170               0              0.63945037
    171 X0000171               0              0.33019765
    172 X0000172               0              0.33019765
    173 X0000173               0              0.54546632
    174 X0000174               0              0.54546632
    175 X0000175               0               0.1619654
    176 X0000176               0               0.1619654
    177 X0000177               0              0.15191478
    178 X0000178               0              0.15191478
    179 X0000179               0              0.50500753
    180 X0000180               0              0.50500753
    181 X0000181               0              0.35174825
    182 X0000182               0              0.35174825
    183 X0000183               0              0.61967275
    184 X0000184               0              0.61967275
    185 X0000185               0               0.3597767
    186 X0000186               0               0.3597767
    187 X0000187               0              0.74892772
    188 X0000188               0               0.5845373
    189 X0000189               0               0.5845373
    190 X0000190               0             -0.25599335
    191 X0000191               0              0.65416065
    192 X0000192               0              0.66800649
    193 X0000193               1              0.66800649
    194 X0000194               0              0.32071554
    195 X0000195               0              0.32071554
    196 X0000196               0              0.54616869
    197 X0000197               0              0.54616869
    198 X0000198               0              0.75923367
    199 X0000199               0              0.81500238
    200 X0000200               0              0.17686078
    201 X0000201               0              0.17686078
    202 X0000202               0              0.75307834
    203 X0000203               0              0.51101735
    204 X0000204               0              0.51101735
    205 X0000205               0              0.34735045
    206 X0000206               0              0.34735045
    207 X0000207               0              0.33798433
    208 X0000208               0              0.33798433
    209 X0000209               0              0.45272896
    210 X0000210               0              0.45272896
    211 X0000211               0             0.080119209
    212 X0000212               0             0.080119209
    213 X0000213               0              0.31521021
    214 X0000214               0              0.31521021
    215 X0000215               0             -0.11720685
    216 X0000216               0               0.3498812
    217 X0000217               0               0.3498812
    218 X0000218               0              0.39885655
    219 X0000219               0              0.39885655
    220 X0000220               0               0.7235729
    221 X0000221               0               0.7235729
    222 X0000222               0              0.22472838
    223 X0000223               0              0.22472838
    224 X0000224               0             -0.15186867
    225 X0000225               0              0.19572298
    226 X0000226               0              0.19022659
    227 X0000227               0              0.19022659
    228 X0000228               0              0.42117076
    229 X0000229               0              0.42117076
    230 X0000230               0              0.44698567
    231 X0000231               0              0.44698567
    232 X0000232               0             -0.17497432
    233 X0000233               0             -0.17497432
    234 X0000234               0              0.41489703
    235 X0000235               0              0.41489703
    236 X0000236               0              0.14331015
    237 X0000237               0              0.14331015
    238 X0000238               0              0.74275326
    239 X0000239               0              0.46103236
    240 X0000240               0              0.46103236
    241 X0000241               0              0.62488981
    242 X0000242               0              0.62488981
    243 X0000243               0             -0.17961456
    244 X0000244               0              0.48248576
    245 X0000245               0              0.48248576
    246 X0000246               0              0.27498938
    247 X0000247               0              0.27498938
    248 X0000248               0              0.67271737
    249 X0000249               0              0.67271737
    250 X0000250               0              0.67915518
    251 X0000251               0              0.67915518
    252 X0000252               0             0.051909188
    253 X0000253               0             0.051909188
    254 X0000254               0             -0.14958006
    255 X0000255               0              0.46677604
    256 X0000256               0              0.46677604
    257 X0000257               0              0.40336656
    258 X0000258               0              0.40336656
    259 X0000259               0              0.45521678
    260 X0000260               0              0.45521678
    261 X0000261               0              0.21974895
    262 X0000262               0              0.21974895
    263 X0000263               0              0.57998404
    264 X0000264               0              0.57998404
    265 X0000265               0               0.6494315
    266 X0000266               0              0.18218658
    267 X0000267               0              0.18218658
    268 X0000268               0              0.28539597
    269 X0000269               0              0.28539597
    270 X0000270               0              0.29004271
    271 X0000271               0              0.29004271
    272 X0000272               0              0.23729737
    273 X0000273               0              0.23729737
    274 X0000274               0              0.23711475
    275 X0000275               0              0.23711475
    276 X0000276               0              0.22989435
    277 X0000277               0              0.22989435
    278 X0000278               0               0.5784954
    279 X0000279               0               0.5784954
    280 X0000280               0              0.43100716
    281 X0000281               0              0.43100716
    282 X0000282               0              0.18935912
    283 X0000283               0              0.54196957
    284 X0000284               1              0.54196957
    285 X0000285               0              0.30595972
    286 X0000286               0              0.30595972
